(set-logic HORN)
(set-info :source |
Author: Frank Schuessele <schuessf@informatik.uni-freiburg.de>
Date: 2022-02-28
Generated from SV-COMP example pthread-ext/33_double_lock_p1_vs.c using Ultimate(using some simplification)
|)

(declare-fun Inv (Int Int Int Int Int Int Int Int) Bool)

(assert (forall ((count Int) (mutexb Int) (mutexa Int) (loc_thread1_1 Int) (loc_thread1_2 Int) (loc_thread2_1 Int) (loc_thread2_2 Int) (loc_main_1 Int)) (=> (Inv count mutexb mutexa loc_thread1_1 loc_thread1_2 loc_thread2_1 loc_thread2_2 loc_main_1) (Inv count mutexb mutexa loc_thread1_2 loc_thread1_1 loc_thread2_1 loc_thread2_2 loc_main_1))))
(assert (forall ((count Int) (mutexb Int) (mutexa Int) (loc_thread1_1 Int) (loc_thread1_2 Int) (loc_thread2_1 Int) (loc_thread2_2 Int) (loc_main_1 Int)) (=> (Inv count mutexb mutexa loc_thread1_1 loc_thread1_2 loc_thread2_1 loc_thread2_2 loc_main_1) (Inv count mutexb mutexa loc_thread1_1 loc_thread1_2 loc_thread2_2 loc_thread2_1 loc_main_1))))
(assert (forall ((count Int) (mutexb Int) (mutexa Int)) (Inv count mutexb mutexa (- 1) (- 1) (- 1) (- 1) 0)))
(assert (forall ((count Int) (mutexb Int) (mutexa Int) (loc_thread1_2 Int) (loc_thread2_1 Int) (loc_thread2_2 Int) (loc_main_1 Int)) (not (Inv count mutexb mutexa 0 loc_thread1_2 loc_thread2_1 loc_thread2_2 loc_main_1))))
(assert (forall ((count Int) (mutexb Int) (mutexa Int) (loc_thread1_2 Int) (loc_thread2_1 Int) (loc_thread2_2 Int) (loc_main_1 Int)) (not (Inv count mutexb mutexa 1 loc_thread1_2 loc_thread2_1 loc_thread2_2 loc_main_1))))
(assert (forall ((count Int) (mutexb Int) (mutexa_23 Int) (loc_thread1_2 Int) (loc_thread2_1 Int) (loc_thread2_2 Int) (loc_main_1 Int) (mutexa_22 Int)) (=> (Inv count mutexb mutexa_23 2 loc_thread1_2 loc_thread2_1 loc_thread2_2 loc_main_1) (and (= mutexa_22 1) (= mutexa_23 0)) (Inv count mutexb mutexa_22 4 loc_thread1_2 loc_thread2_1 loc_thread2_2 loc_main_1))))
(assert (forall ((count_1 Int) (mutexb Int) (mutexa Int) (loc_thread1_2 Int) (loc_thread2_1 Int) (loc_thread2_2 Int) (loc_main_1 Int)) (=> (Inv count_1 mutexb mutexa 4 loc_thread1_2 loc_thread2_1 loc_thread2_2 loc_main_1) (not (<= 0 (+ count_1 1))) (Inv count_1 mutexb mutexa 1 loc_thread1_2 loc_thread2_1 loc_thread2_2 loc_main_1))))
(assert (forall ((count_2 Int) (mutexb Int) (mutexa Int) (loc_thread1_2 Int) (loc_thread2_1 Int) (loc_thread2_2 Int) (loc_main_1 Int)) (=> (Inv count_2 mutexb mutexa 4 loc_thread1_2 loc_thread2_1 loc_thread2_2 loc_main_1) (<= 0 (+ count_2 1)) (Inv count_2 mutexb mutexa 5 loc_thread1_2 loc_thread2_1 loc_thread2_2 loc_main_1))))
(assert (forall ((count Int) (mutexb_19 Int) (mutexa Int) (loc_thread1_2 Int) (loc_thread2_1 Int) (loc_thread2_2 Int) (loc_main_1 Int) (mutexb_18 Int)) (=> (Inv count mutexb_19 mutexa 5 loc_thread1_2 loc_thread2_1 loc_thread2_2 loc_main_1) (and (= mutexb_18 1) (= mutexb_19 0)) (Inv count mutexb_18 mutexa 6 loc_thread1_2 loc_thread2_1 loc_thread2_2 loc_main_1))))
(assert (forall ((count_3 Int) (mutexb Int) (mutexa Int) (loc_thread1_2 Int) (loc_thread2_1 Int) (loc_thread2_2 Int) (loc_main_1 Int)) (=> (Inv count_3 mutexb mutexa 6 loc_thread1_2 loc_thread2_1 loc_thread2_2 loc_main_1) (not (= count_3 0)) (Inv count_3 mutexb mutexa 0 loc_thread1_2 loc_thread2_1 loc_thread2_2 loc_main_1))))
(assert (forall ((count_4 Int) (mutexb Int) (mutexa Int) (loc_thread1_2 Int) (loc_thread2_1 Int) (loc_thread2_2 Int) (loc_main_1 Int)) (=> (Inv count_4 mutexb mutexa 6 loc_thread1_2 loc_thread2_1 loc_thread2_2 loc_main_1) (= count_4 0) (Inv count_4 mutexb mutexa 7 loc_thread1_2 loc_thread2_1 loc_thread2_2 loc_main_1))))
(assert (forall ((count Int) (mutexb_11 Int) (mutexa Int) (loc_thread1_2 Int) (loc_thread2_1 Int) (loc_thread2_2 Int) (loc_main_1 Int) (mutexb_10 Int)) (=> (Inv count mutexb_11 mutexa 7 loc_thread1_2 loc_thread2_1 loc_thread2_2 loc_main_1) (and (= mutexb_10 0) (= mutexb_11 1)) (Inv count mutexb_10 mutexa 8 loc_thread1_2 loc_thread2_1 loc_thread2_2 loc_main_1))))
(assert (forall ((count Int) (mutexb Int) (mutexa_19 Int) (loc_thread1_2 Int) (loc_thread2_1 Int) (loc_thread2_2 Int) (loc_main_1 Int) (mutexa_18 Int)) (=> (Inv count mutexb mutexa_19 8 loc_thread1_2 loc_thread2_1 loc_thread2_2 loc_main_1) (and (= mutexa_19 1) (= mutexa_18 0)) (Inv count mutexb mutexa_18 2 loc_thread1_2 loc_thread2_1 loc_thread2_2 loc_main_1))))
(assert (forall ((count Int) (mutexb Int) (mutexa_15 Int) (loc_thread1_1 Int) (loc_thread1_2 Int) (loc_thread2_2 Int) (loc_main_1 Int) (mutexa_14 Int)) (=> (Inv count mutexb mutexa_15 loc_thread1_1 loc_thread1_2 0 loc_thread2_2 loc_main_1) (and (= mutexa_14 1) (= mutexa_15 0)) (Inv count mutexb mutexa_14 loc_thread1_1 loc_thread1_2 1 loc_thread2_2 loc_main_1))))
(assert (forall ((count Int) (mutexb_15 Int) (mutexa Int) (loc_thread1_1 Int) (loc_thread1_2 Int) (loc_thread2_2 Int) (loc_main_1 Int) (mutexb_14 Int)) (=> (Inv count mutexb_15 mutexa loc_thread1_1 loc_thread1_2 0 loc_thread2_2 loc_main_1) (and (= mutexb_15 0) (= mutexb_14 1)) (Inv count mutexb_14 mutexa loc_thread1_1 loc_thread1_2 2 loc_thread2_2 loc_main_1))))
(assert (forall ((count_6 Int) (mutexb Int) (mutexa Int) (loc_thread1_1 Int) (loc_thread1_2 Int) (loc_thread2_2 Int) (loc_main_1 Int) (count_5 Int)) (=> (Inv count_6 mutexb mutexa loc_thread1_1 loc_thread1_2 1 loc_thread2_2 loc_main_1) (= count_5 (+ count_6 1)) (Inv count_5 mutexb mutexa loc_thread1_1 loc_thread1_2 3 loc_thread2_2 loc_main_1))))
(assert (forall ((count_10 Int) (mutexb Int) (mutexa Int) (loc_thread1_1 Int) (loc_thread1_2 Int) (loc_thread2_2 Int) (loc_main_1 Int) (count_9 Int)) (=> (Inv count_10 mutexb mutexa loc_thread1_1 loc_thread1_2 2 loc_thread2_2 loc_main_1) (= (+ count_10 (- 1)) count_9) (Inv count_9 mutexb mutexa loc_thread1_1 loc_thread1_2 4 loc_thread2_2 loc_main_1))))
(assert (forall ((count_8 Int) (mutexb Int) (mutexa Int) (loc_thread1_1 Int) (loc_thread1_2 Int) (loc_thread2_2 Int) (loc_main_1 Int) (count_7 Int)) (=> (Inv count_8 mutexb mutexa loc_thread1_1 loc_thread1_2 3 loc_thread2_2 loc_main_1) (= count_7 (+ (- 1) count_8)) (Inv count_7 mutexb mutexa loc_thread1_1 loc_thread1_2 5 loc_thread2_2 loc_main_1))))
(assert (forall ((count_12 Int) (mutexb Int) (mutexa Int) (loc_thread1_1 Int) (loc_thread1_2 Int) (loc_thread2_2 Int) (loc_main_1 Int) (count_11 Int)) (=> (Inv count_12 mutexb mutexa loc_thread1_1 loc_thread1_2 4 loc_thread2_2 loc_main_1) (= count_11 (+ count_12 1)) (Inv count_11 mutexb mutexa loc_thread1_1 loc_thread1_2 6 loc_thread2_2 loc_main_1))))
(assert (forall ((count Int) (mutexb Int) (mutexa_11 Int) (loc_thread1_1 Int) (loc_thread1_2 Int) (loc_thread2_2 Int) (loc_main_1 Int) (mutexa_10 Int)) (=> (Inv count mutexb mutexa_11 loc_thread1_1 loc_thread1_2 5 loc_thread2_2 loc_main_1) (and (= mutexa_10 0) (= mutexa_11 1)) (Inv count mutexb mutexa_10 loc_thread1_1 loc_thread1_2 7 loc_thread2_2 loc_main_1))))
(assert (forall ((count Int) (mutexb_23 Int) (mutexa Int) (loc_thread1_1 Int) (loc_thread1_2 Int) (loc_thread2_2 Int) (loc_main_1 Int) (mutexb_22 Int)) (=> (Inv count mutexb_23 mutexa loc_thread1_1 loc_thread1_2 6 loc_thread2_2 loc_main_1) (and (= mutexb_22 0) (= mutexb_23 1)) (Inv count mutexb_22 mutexa loc_thread1_1 loc_thread1_2 7 loc_thread2_2 loc_main_1))))
(assert (forall ((count Int) (mutexb Int) (mutexa Int) (loc_thread1_1 Int) (loc_thread1_2 Int) (loc_thread2_2 Int) (loc_main_1 Int)) (=> (Inv count mutexb mutexa loc_thread1_1 loc_thread1_2 7 loc_thread2_2 loc_main_1) (Inv count mutexb mutexa loc_thread1_1 loc_thread1_2 8 loc_thread2_2 loc_main_1))))
(assert (forall ((count Int) (mutexb Int) (mutexa Int) (loc_thread1_1 Int) (loc_thread1_2 Int) (loc_thread2_1 Int) (loc_thread2_2 Int) (count_13 Int)) (=> (Inv count mutexb mutexa loc_thread1_1 loc_thread1_2 loc_thread2_1 loc_thread2_2 0) (= count_13 0) (Inv count_13 mutexb mutexa loc_thread1_1 loc_thread1_2 loc_thread2_1 loc_thread2_2 1))))
(assert (forall ((count Int) (mutexb Int) (mutexa Int) (loc_thread1_1 Int) (loc_thread1_2 Int) (loc_thread2_1 Int) (loc_thread2_2 Int) (mutexa_9 Int)) (=> (Inv count mutexb mutexa loc_thread1_1 loc_thread1_2 loc_thread2_1 loc_thread2_2 1) (= mutexa_9 0) (Inv count mutexb mutexa_9 loc_thread1_1 loc_thread1_2 loc_thread2_1 loc_thread2_2 2))))
(assert (forall ((count Int) (mutexb Int) (mutexa Int) (loc_thread1_1 Int) (loc_thread1_2 Int) (loc_thread2_1 Int) (loc_thread2_2 Int) (mutexb_9 Int)) (=> (Inv count mutexb mutexa loc_thread1_1 loc_thread1_2 loc_thread2_1 loc_thread2_2 2) (= mutexb_9 0) (Inv count mutexb_9 mutexa loc_thread1_1 loc_thread1_2 loc_thread2_1 loc_thread2_2 3))))
(assert (forall ((count Int) (mutexb Int) (mutexa Int) (loc_thread1_2 Int) (loc_thread2_1 Int) (loc_thread2_2 Int)) (=> (Inv count mutexb mutexa (- 1) loc_thread1_2 loc_thread2_1 loc_thread2_2 3) (Inv count mutexb mutexa 2 loc_thread1_2 loc_thread2_1 loc_thread2_2 4))))
(assert (forall ((count Int) (mutexb Int) (mutexa Int) (loc_thread1_1 Int) (loc_thread1_2 Int) (loc_thread2_1 Int) (loc_thread2_2 Int)) (=> (Inv count mutexb mutexa loc_thread1_1 loc_thread1_2 loc_thread2_1 loc_thread2_2 3) (Inv count mutexb mutexa loc_thread1_1 loc_thread1_2 loc_thread2_1 loc_thread2_2 4))))
(assert (forall ((count Int) (mutexb Int) (mutexa Int) (loc_thread1_1 Int) (loc_thread1_2 Int) (loc_thread2_2 Int)) (=> (Inv count mutexb mutexa loc_thread1_1 loc_thread1_2 (- 1) loc_thread2_2 4) (Inv count mutexb mutexa loc_thread1_1 loc_thread1_2 0 loc_thread2_2 4))))
(assert (forall ((count Int) (mutexb Int) (mutexa Int) (loc_thread1_1 Int) (loc_thread1_2 Int) (loc_thread2_1 Int) (loc_thread2_2 Int)) (let ((.cse0 (Inv count mutexb mutexa loc_thread1_1 loc_thread1_2 loc_thread2_1 loc_thread2_2 4))) (=> .cse0 .cse0))))
(assert (forall ((count Int) (mutexb Int) (mutexa Int) (loc_thread1_1 Int) (loc_thread1_2 Int) (loc_thread2_1 Int) (loc_thread2_2 Int)) (=> (Inv count mutexb mutexa loc_thread1_1 loc_thread1_2 loc_thread2_1 loc_thread2_2 5) (Inv count mutexb mutexa loc_thread1_1 loc_thread1_2 loc_thread2_1 loc_thread2_2 6))))
(assert (forall ((count Int) (mutexb Int) (mutexa_23 Int) (loc_thread1_1 Int) (loc_thread1_2 Int) (loc_thread2_1 Int) (loc_thread2_2 Int) (loc_main_1 Int) (mutexa_22 Int)) (=> (Inv count mutexb mutexa_23 2 loc_thread1_2 loc_thread2_1 loc_thread2_2 loc_main_1) (Inv count mutexb mutexa_23 loc_thread1_1 2 loc_thread2_1 loc_thread2_2 loc_main_1) (Inv count mutexb mutexa_23 loc_thread1_1 loc_thread1_2 loc_thread2_1 loc_thread2_2 loc_main_1) (and (= mutexa_22 1) (= mutexa_23 0)) (Inv count mutexb mutexa_22 loc_thread1_1 loc_thread1_2 loc_thread2_1 loc_thread2_2 loc_main_1))))
(assert (forall ((count_1 Int) (mutexb Int) (mutexa Int) (loc_thread1_1 Int) (loc_thread1_2 Int) (loc_thread2_1 Int) (loc_thread2_2 Int) (loc_main_1 Int)) (let ((.cse0 (Inv count_1 mutexb mutexa loc_thread1_1 loc_thread1_2 loc_thread2_1 loc_thread2_2 loc_main_1))) (=> (Inv count_1 mutexb mutexa 4 loc_thread1_2 loc_thread2_1 loc_thread2_2 loc_main_1) (Inv count_1 mutexb mutexa loc_thread1_1 4 loc_thread2_1 loc_thread2_2 loc_main_1) .cse0 (not (<= 0 (+ count_1 1))) .cse0))))
(assert (forall ((count_2 Int) (mutexb Int) (mutexa Int) (loc_thread1_1 Int) (loc_thread1_2 Int) (loc_thread2_1 Int) (loc_thread2_2 Int) (loc_main_1 Int)) (let ((.cse0 (Inv count_2 mutexb mutexa loc_thread1_1 loc_thread1_2 loc_thread2_1 loc_thread2_2 loc_main_1))) (=> (Inv count_2 mutexb mutexa 4 loc_thread1_2 loc_thread2_1 loc_thread2_2 loc_main_1) (Inv count_2 mutexb mutexa loc_thread1_1 4 loc_thread2_1 loc_thread2_2 loc_main_1) .cse0 (<= 0 (+ count_2 1)) .cse0))))
(assert (forall ((count Int) (mutexb_19 Int) (mutexa Int) (loc_thread1_1 Int) (loc_thread1_2 Int) (loc_thread2_1 Int) (loc_thread2_2 Int) (loc_main_1 Int) (mutexb_18 Int)) (=> (Inv count mutexb_19 mutexa 5 loc_thread1_2 loc_thread2_1 loc_thread2_2 loc_main_1) (Inv count mutexb_19 mutexa loc_thread1_1 5 loc_thread2_1 loc_thread2_2 loc_main_1) (Inv count mutexb_19 mutexa loc_thread1_1 loc_thread1_2 loc_thread2_1 loc_thread2_2 loc_main_1) (and (= mutexb_18 1) (= mutexb_19 0)) (Inv count mutexb_18 mutexa loc_thread1_1 loc_thread1_2 loc_thread2_1 loc_thread2_2 loc_main_1))))
(assert (forall ((count_3 Int) (mutexb Int) (mutexa Int) (loc_thread1_1 Int) (loc_thread1_2 Int) (loc_thread2_1 Int) (loc_thread2_2 Int) (loc_main_1 Int)) (let ((.cse0 (Inv count_3 mutexb mutexa loc_thread1_1 loc_thread1_2 loc_thread2_1 loc_thread2_2 loc_main_1))) (=> (Inv count_3 mutexb mutexa 6 loc_thread1_2 loc_thread2_1 loc_thread2_2 loc_main_1) (Inv count_3 mutexb mutexa loc_thread1_1 6 loc_thread2_1 loc_thread2_2 loc_main_1) .cse0 (not (= count_3 0)) .cse0))))
(assert (forall ((count_4 Int) (mutexb Int) (mutexa Int) (loc_thread1_1 Int) (loc_thread1_2 Int) (loc_thread2_1 Int) (loc_thread2_2 Int) (loc_main_1 Int)) (let ((.cse0 (Inv count_4 mutexb mutexa loc_thread1_1 loc_thread1_2 loc_thread2_1 loc_thread2_2 loc_main_1))) (=> (Inv count_4 mutexb mutexa 6 loc_thread1_2 loc_thread2_1 loc_thread2_2 loc_main_1) (Inv count_4 mutexb mutexa loc_thread1_1 6 loc_thread2_1 loc_thread2_2 loc_main_1) .cse0 (= count_4 0) .cse0))))
(assert (forall ((count Int) (mutexb_11 Int) (mutexa Int) (loc_thread1_1 Int) (loc_thread1_2 Int) (loc_thread2_1 Int) (loc_thread2_2 Int) (loc_main_1 Int) (mutexb_10 Int)) (=> (Inv count mutexb_11 mutexa 7 loc_thread1_2 loc_thread2_1 loc_thread2_2 loc_main_1) (Inv count mutexb_11 mutexa loc_thread1_1 7 loc_thread2_1 loc_thread2_2 loc_main_1) (Inv count mutexb_11 mutexa loc_thread1_1 loc_thread1_2 loc_thread2_1 loc_thread2_2 loc_main_1) (and (= mutexb_10 0) (= mutexb_11 1)) (Inv count mutexb_10 mutexa loc_thread1_1 loc_thread1_2 loc_thread2_1 loc_thread2_2 loc_main_1))))
(assert (forall ((count Int) (mutexb Int) (mutexa_19 Int) (loc_thread1_1 Int) (loc_thread1_2 Int) (loc_thread2_1 Int) (loc_thread2_2 Int) (loc_main_1 Int) (mutexa_18 Int)) (=> (Inv count mutexb mutexa_19 8 loc_thread1_2 loc_thread2_1 loc_thread2_2 loc_main_1) (Inv count mutexb mutexa_19 loc_thread1_1 8 loc_thread2_1 loc_thread2_2 loc_main_1) (Inv count mutexb mutexa_19 loc_thread1_1 loc_thread1_2 loc_thread2_1 loc_thread2_2 loc_main_1) (and (= mutexa_19 1) (= mutexa_18 0)) (Inv count mutexb mutexa_18 loc_thread1_1 loc_thread1_2 loc_thread2_1 loc_thread2_2 loc_main_1))))
(assert (forall ((count Int) (mutexb Int) (mutexa_15 Int) (loc_thread1_1 Int) (loc_thread1_2 Int) (loc_thread2_1 Int) (loc_thread2_2 Int) (loc_main_1 Int) (mutexa_14 Int)) (=> (Inv count mutexb mutexa_15 loc_thread1_1 loc_thread1_2 0 loc_thread2_2 loc_main_1) (Inv count mutexb mutexa_15 loc_thread1_1 loc_thread1_2 loc_thread2_1 0 loc_main_1) (Inv count mutexb mutexa_15 loc_thread1_1 loc_thread1_2 loc_thread2_1 loc_thread2_2 loc_main_1) (and (= mutexa_14 1) (= mutexa_15 0)) (Inv count mutexb mutexa_14 loc_thread1_1 loc_thread1_2 loc_thread2_1 loc_thread2_2 loc_main_1))))
(assert (forall ((count Int) (mutexb_15 Int) (mutexa Int) (loc_thread1_1 Int) (loc_thread1_2 Int) (loc_thread2_1 Int) (loc_thread2_2 Int) (loc_main_1 Int) (mutexb_14 Int)) (=> (Inv count mutexb_15 mutexa loc_thread1_1 loc_thread1_2 0 loc_thread2_2 loc_main_1) (Inv count mutexb_15 mutexa loc_thread1_1 loc_thread1_2 loc_thread2_1 0 loc_main_1) (Inv count mutexb_15 mutexa loc_thread1_1 loc_thread1_2 loc_thread2_1 loc_thread2_2 loc_main_1) (and (= mutexb_15 0) (= mutexb_14 1)) (Inv count mutexb_14 mutexa loc_thread1_1 loc_thread1_2 loc_thread2_1 loc_thread2_2 loc_main_1))))
(assert (forall ((count_6 Int) (mutexb Int) (mutexa Int) (loc_thread1_1 Int) (loc_thread1_2 Int) (loc_thread2_1 Int) (loc_thread2_2 Int) (loc_main_1 Int) (count_5 Int)) (=> (Inv count_6 mutexb mutexa loc_thread1_1 loc_thread1_2 1 loc_thread2_2 loc_main_1) (Inv count_6 mutexb mutexa loc_thread1_1 loc_thread1_2 loc_thread2_1 1 loc_main_1) (Inv count_6 mutexb mutexa loc_thread1_1 loc_thread1_2 loc_thread2_1 loc_thread2_2 loc_main_1) (= count_5 (+ count_6 1)) (Inv count_5 mutexb mutexa loc_thread1_1 loc_thread1_2 loc_thread2_1 loc_thread2_2 loc_main_1))))
(assert (forall ((count_10 Int) (mutexb Int) (mutexa Int) (loc_thread1_1 Int) (loc_thread1_2 Int) (loc_thread2_1 Int) (loc_thread2_2 Int) (loc_main_1 Int) (count_9 Int)) (=> (Inv count_10 mutexb mutexa loc_thread1_1 loc_thread1_2 2 loc_thread2_2 loc_main_1) (Inv count_10 mutexb mutexa loc_thread1_1 loc_thread1_2 loc_thread2_1 2 loc_main_1) (Inv count_10 mutexb mutexa loc_thread1_1 loc_thread1_2 loc_thread2_1 loc_thread2_2 loc_main_1) (= (+ count_10 (- 1)) count_9) (Inv count_9 mutexb mutexa loc_thread1_1 loc_thread1_2 loc_thread2_1 loc_thread2_2 loc_main_1))))
(assert (forall ((count_8 Int) (mutexb Int) (mutexa Int) (loc_thread1_1 Int) (loc_thread1_2 Int) (loc_thread2_1 Int) (loc_thread2_2 Int) (loc_main_1 Int) (count_7 Int)) (=> (Inv count_8 mutexb mutexa loc_thread1_1 loc_thread1_2 3 loc_thread2_2 loc_main_1) (Inv count_8 mutexb mutexa loc_thread1_1 loc_thread1_2 loc_thread2_1 3 loc_main_1) (Inv count_8 mutexb mutexa loc_thread1_1 loc_thread1_2 loc_thread2_1 loc_thread2_2 loc_main_1) (= count_7 (+ (- 1) count_8)) (Inv count_7 mutexb mutexa loc_thread1_1 loc_thread1_2 loc_thread2_1 loc_thread2_2 loc_main_1))))
(assert (forall ((count_12 Int) (mutexb Int) (mutexa Int) (loc_thread1_1 Int) (loc_thread1_2 Int) (loc_thread2_1 Int) (loc_thread2_2 Int) (loc_main_1 Int) (count_11 Int)) (=> (Inv count_12 mutexb mutexa loc_thread1_1 loc_thread1_2 4 loc_thread2_2 loc_main_1) (Inv count_12 mutexb mutexa loc_thread1_1 loc_thread1_2 loc_thread2_1 4 loc_main_1) (Inv count_12 mutexb mutexa loc_thread1_1 loc_thread1_2 loc_thread2_1 loc_thread2_2 loc_main_1) (= count_11 (+ count_12 1)) (Inv count_11 mutexb mutexa loc_thread1_1 loc_thread1_2 loc_thread2_1 loc_thread2_2 loc_main_1))))
(assert (forall ((count Int) (mutexb Int) (mutexa_11 Int) (loc_thread1_1 Int) (loc_thread1_2 Int) (loc_thread2_1 Int) (loc_thread2_2 Int) (loc_main_1 Int) (mutexa_10 Int)) (=> (Inv count mutexb mutexa_11 loc_thread1_1 loc_thread1_2 5 loc_thread2_2 loc_main_1) (Inv count mutexb mutexa_11 loc_thread1_1 loc_thread1_2 loc_thread2_1 5 loc_main_1) (Inv count mutexb mutexa_11 loc_thread1_1 loc_thread1_2 loc_thread2_1 loc_thread2_2 loc_main_1) (and (= mutexa_10 0) (= mutexa_11 1)) (Inv count mutexb mutexa_10 loc_thread1_1 loc_thread1_2 loc_thread2_1 loc_thread2_2 loc_main_1))))
(assert (forall ((count Int) (mutexb_23 Int) (mutexa Int) (loc_thread1_1 Int) (loc_thread1_2 Int) (loc_thread2_1 Int) (loc_thread2_2 Int) (loc_main_1 Int) (mutexb_22 Int)) (=> (Inv count mutexb_23 mutexa loc_thread1_1 loc_thread1_2 6 loc_thread2_2 loc_main_1) (Inv count mutexb_23 mutexa loc_thread1_1 loc_thread1_2 loc_thread2_1 6 loc_main_1) (Inv count mutexb_23 mutexa loc_thread1_1 loc_thread1_2 loc_thread2_1 loc_thread2_2 loc_main_1) (and (= mutexb_22 0) (= mutexb_23 1)) (Inv count mutexb_22 mutexa loc_thread1_1 loc_thread1_2 loc_thread2_1 loc_thread2_2 loc_main_1))))
(assert (forall ((count Int) (mutexb Int) (mutexa Int) (loc_thread1_1 Int) (loc_thread1_2 Int) (loc_thread2_1 Int) (loc_thread2_2 Int) (loc_main_1 Int)) (let ((.cse0 (Inv count mutexb mutexa loc_thread1_1 loc_thread1_2 loc_thread2_1 loc_thread2_2 loc_main_1))) (=> (Inv count mutexb mutexa loc_thread1_1 loc_thread1_2 7 loc_thread2_2 loc_main_1) (Inv count mutexb mutexa loc_thread1_1 loc_thread1_2 loc_thread2_1 7 loc_main_1) .cse0 .cse0))))

(check-sat)
